
Gurobi 13.0.2 (win64) logging started Fri Jul 24 09:43:57 2026

Set parameter LogFile to value "E:\codes\ExactEBRP\results\gf_c0_mechanism_transfer_c5_round30\runs\stage2__tight_T_seed5103__c4_candidate__300s\external\native_logs\L1.0.1_lp.gurobi.log"
Gurobi Optimizer version 13.0.2 build v13.0.2rc1 (win64 - Windows 10.0 (19045.2))

CPU model: 12th Gen Intel(R) Core(TM) i7-12700KF, instruction set [SSE2|AVX|AVX2]
Thread count: 12 physical cores, 20 logical processors, using up to 1 threads

Non-default parameters:
TimeLimit  264.117515
MIPGap  0
MIPGapAbs  0
LogToConsole  0
Threads  1

Optimize a model with 11911 rows, 3376 columns and 67363 nonzeros (Min)
Model fingerprint: 0xb3889056
Model has 21 linear objective coefficients
Coefficient statistics:
  Matrix range     [7e-03, 2e+04]
  Objective range  [7e-03, 1e+00]
  Bounds range     [9e-02, 3e+02]
  RHS range        [5e-02, 5e+04]

Presolve removed 1238 rows and 111 columns
Presolve time: 0.04s
Presolved: 10673 rows, 3266 columns, 61238 nonzeros

Iteration    Objective       Primal Inf.    Dual Inf.      Time
       0    9.7198683e-02   3.595429e+02   0.000000e+00      0s

Extra simplex iterations after uncrush: 5
    3880    1.4558767e-01   0.000000e+00   0.000000e+00      0s

Solved in 3880 iterations and 0.31 seconds (0.87 work units)
Optimal objective  1.455876657e-01

User-callback calls 4030, time in user-callback 0.00 sec
